67
41
0
0
47
21
87
97
0
46
0
111
50
24
0
53
0
50
30
15
50
27
20
37
10
31
141
72
11
82
18
115
42
0
47
50
54
0
91
0
34
15
47
40
114
79
122
39
27
125
15
14
35
66
135
34
51
49
16
14
119
100
37
27
84
44
22
0
21
55
39
44
37
13
31
20
41
11
26
21
129
0
44
60
124
43
40
64
23
37
30
67
0
40
32
13
9
30
99
90
